NAME: P-n22-k8-C8-V4
TYPE: SoftCluVRP
DIMENSION:  22 
VEHICLES:  4 
GVRP_SETS:  8 
CAPACITY:  3000 
EDGE_WEIGHT_TYPE: EUC_2D
NODE_COORD_SECTION 
1 145.000000 215.000000
2 151.000000 264.000000
3 159.000000 261.000000
4 130.000000 254.000000
5 128.000000 252.000000
6 163.000000 247.000000
7 146.000000 246.000000
8 161.000000 242.000000
9 142.000000 239.000000
10 163.000000 236.000000
11 148.000000 232.000000
12 128.000000 231.000000
13 156.000000 217.000000
14 129.000000 214.000000
15 146.000000 208.000000
16 164.000000 208.000000
17 141.000000 206.000000
18 147.000000 193.000000
19 164.000000 193.000000
20 129.000000 189.000000
21 155.000000 185.000000
22 139.000000 182.000000
GVRP_SET_SECTION 
 1 2  3 -1
 2  22  18  20  21 -1
 3  12 -1
 4  16  13  19 -1
 5  10  6  8 -1
 6  4  5 -1
 7  17  14  15 -1
 8  7  9  11 -1
 DEMAND_SECTION
 1 900 
 2 1500 
 3 1200 
 4 1033 
 5 1133 
 6 1100 
 7 1233 
 8 366 
EOF
